n_nodes = 76;
M = 2610;
n_domains = 19;
domain_link_weights = [|0,0,0,0,0,0,730,0,0,0,247,0,0,0,0,0,0,0,0|0,0,0,730,0,0,0,0,0,0,0,0,0,0,0,0,0,0,0|0,0,0,0,0,0,0,0,0,0,0,0,0,0,0,466,0,0,0|0,0,0,0,0,0,0,0,373,0,0,0,0,0,0,0,713,0,0|0,0,0,0,0,280,0,597,0,0,0,0,0,0,0,0,0,0,0|0,0,0,0,0,0,0,0,0,0,0,0,0,0,0,0,0,0,0|0,0,0,0,0,0,0,519,0,0,0,0,0,0,0,0,0,0,0|0,0,0,0,0,0,0,0,0,0,0,0,0,0,0,0,0,0,0|0,0,0,0,0,0,0,0,0,0,0,0,0,0,0,0,0,0,0|0,0,0,0,0,0,0,0,0,0,0,0,0,0,0,597,597,0,0|0,0,0,0,0,0,0,0,0,0,0,0,0,0,0,0,0,0,0|0,0,0,0,0,0,0,0,0,0,0,0,0,2138,0,0,0,0,0|0,0,0,0,0,0,0,0,0,0,0,0,0,0,2138,0,0,0,0|0,0,0,0,0,0,0,0,0,0,0,0,0,0,0,654,0,0,2609|0,0,0,0,0,0,0,0,0,0,0,0,0,0,0,0,654,1326,0|0,0,0,0,0,0,0,0,0,0,0,0,0,0,0,0,0,0,0|0,0,0,0,0,0,0,0,0,0,0,0,0,0,0,0,0,0,0|0,0,0,0,0,0,0,0,0,0,0,0,0,0,0,0,0,0,1284|0,0,0,0,0,0,0,0,0,0,0,0,0,0,0,0,0,0,0|];
num_node_links = 138;
node_links = [|0,10|0,3|0,6|1,3|1,6|2,10|2,15|3,8|3,16|4,5|4,7|6,7|9,16|9,15|11,12|11,13|12,14|13,18|13,14|13,15|14,16|14,17|15,16|17,18|1,20|20,1|1,42|42,1|1,54|54,1|1,74|74,1|2,21|21,2|2,44|44,2|2,49|49,2|2,68|68,2|2,72|72,2|3,22|22,3|3,40|40,3|3,43|43,3|4,23|23,4|4,53|53,4|5,24|24,5|5,58|58,5|6,25|25,6|6,52|52,6|6,57|57,6|6,59|59,6|6,70|70,6|6,71|71,6|7,26|26,7|7,51|51,7|8,27|27,8|8,46|46,8|8,56|56,8|9,28|28,9|9,41|41,9|9,45|45,9|9,47|47,9|9,61|61,9|9,62|62,9|9,75|75,9|10,29|29,10|10,55|55,10|11,30|30,11|12,31|31,12|12,63|63,12|13,32|32,13|13,73|73,13|14,33|33,14|14,64|64,14|14,65|65,14|15,34|34,15|15,69|69,15|16,35|35,16|16,50|50,16|17,36|36,17|17,76|76,17|18,37|37,18|18,39|39,18|18,60|60,18|18,66|66,18|18,67|67,18|19,38|38,19|19,48|48,19|];
nodes = [|1,9,0,0,0,0,1,1|2,9,0,0,0,0,1,2|3,9,0,0,0,0,1,3|4,9,0,0,0,0,1,4|5,9,0,0,0,0,1,5|6,9,0,0,0,0,1,6|7,9,0,0,0,0,1,7|8,9,0,0,0,0,1,8|9,9,0,0,0,0,1,9|10,9,0,0,0,0,1,10|11,9,0,0,0,0,1,11|12,9,0,0,0,0,1,12|13,9,0,0,0,0,1,13|14,9,0,0,0,0,1,14|15,9,0,0,0,0,1,15|16,9,0,0,0,0,1,16|17,9,0,0,0,0,1,17|18,9,0,0,0,0,1,18|19,9,0,0,0,0,1,19|20,10,0,0,0,0,1,1|21,10,0,0,0,0,1,2|22,10,0,0,0,0,1,3|23,10,0,0,0,0,1,4|24,10,0,0,0,0,1,5|25,10,0,0,0,0,1,6|26,10,0,0,0,0,1,7|27,10,0,0,0,0,1,8|28,10,0,0,0,0,1,9|29,10,0,0,0,0,1,10|30,10,0,0,0,0,1,11|31,10,0,0,0,0,1,12|32,10,0,0,0,0,1,13|33,10,0,0,0,0,1,14|34,10,0,0,0,0,1,15|35,10,0,0,0,0,1,16|36,10,0,0,0,0,1,17|37,10,0,0,0,0,1,18|38,10,0,0,0,0,1,19|39,4,0,0,0,0,1,18|40,4,0,0,0,0,1,3|41,5,0,0,0,0,1,9|42,5,0,0,0,0,1,1|43,5,0,0,0,0,1,3|44,1,0,0,0,0,1,2|45,3,0,0,0,0,1,9|46,5,0,0,0,0,1,8|47,4,0,0,0,0,1,9|48,1,0,0,0,0,1,19|49,3,0,0,0,0,1,2|50,5,0,0,0,0,1,16|51,2,0,0,0,0,1,7|52,2,0,0,0,0,1,6|53,4,0,0,0,0,1,4|54,3,0,0,0,0,1,1|55,1,0,0,0,0,1,10|56,1,0,0,0,0,1,8|57,5,0,0,0,0,1,6|58,4,0,0,0,0,1,5|59,4,0,0,0,0,1,6|60,5,0,0,0,0,1,18|61,4,0,0,0,0,1,9|62,3,0,0,0,0,1,9|63,1,0,0,0,0,1,12|64,2,0,0,0,0,1,14|65,1,0,0,0,0,1,14|66,4,0,0,0,0,1,18|67,4,0,0,0,0,1,18|68,3,0,0,0,0,1,2|69,3,0,0,0,0,1,15|70,2,0,0,0,0,1,6|71,2,0,0,0,0,1,6|72,5,0,0,0,0,1,2|73,3,0,0,0,0,1,13|74,5,0,0,0,0,1,1|75,2,0,0,0,0,1,9|76,5,0,0,0,0,1,17|];
